c This input sequence yields 2 propagations
p cnf 10 20
 4 -8 9 0
3 8 -5 0
-5 -8 -1 0
-2 7 -6 0
1 -3 -7 0
-2 -9 7 0
7 9 5 0
-1 9 5 0
1 -5 -1 0
8 -1 3 0
9 10 2 0
1 2 3 0
-1 5 6 0
8 9 -7 0
6 7 3 0
3 4 5 0
-1 9 3 0
4 5 6 0
8 9 -1 0
-9 -7 2 0
7 7 7 0
-8 9 2 0
